13 87 2 58 
28 12 76 50 69 70 10 63 90 32 30 51 9 81 33 79 3 77 68 80 
53 40 21 73 72 22 75 23 67 39 24 29 78 34 35 71 65 66 20 1 
27 52 31 88 62 19 11 64 49 36 47 46 8 82 48 7 18 60 83 45 17 84 5 93 97 57 41 74 56 4 25 55 54 26 
94 95 92 98 85 61 16 86 38 42 15 43 14 44 91 100 37 59 99 96 6 89 
